p cnf 283 1008
-26 -2 45 0
12 -4 46 0
26 14 -49 0
14 -2 18 0
-32 42 49 0
-12 -30 37 0
-8 38 46 0
36 41 -5 0
-20 -16 -13 0
-28 -27 -38 0
-7 39 36 0
-40 -39 7 0
3 31 36 0
-35 -34 4 0
8 -44 20 0
-13 -45 38 0
44 32 -7 0
23 -12 -39 0
-26 6 -9 0
-38 -48 -8 0
-1 45 3 0
30 9 18 0
-35 18 30 0
-30 -17 47 0
22 -1 -34 0
14 -8 20 0
46 -4 7 0
40 -11 -35 0
37 -11 -48 0
17 -39 -15 0
37 34 -23 0
35 -45 -39 0
50 10 -26 0
31 -27 23 0
-2 17 -49 0
-32 1 -43 0
-23 19 -25 0
26 14 37 0
-26 -15 -28 0
13 24 33 0
-46 22 36 0
-17 -7 25 0
-40 -28 -9 0
5 1 -21 0
-34 2 38 0
-38 45 48 0
35 31 36 0
-4 3 32 0
-11 17 41 0
37 38 -7 0
-1 4 51 0
1 4 -51 0
-1 -4 -51 0
1 -4 51 0
5 7 52 0
-5 7 -52 0
5 -7 -52 0
-5 -7 52 0
9 10 53 0
-9 10 -53 0
9 -10 -53 0
-9 -10 53 0
-13 -21 54 0
13 -21 -54 0
-13 21 -54 0
13 21 54 0
23 -25 55 0
-23 -25 -55 0
23 25 -55 0
-23 25 55 0
27 -28 56 0
-27 -28 -56 0
27 28 -56 0
-27 28 56 0
-30 -31 57 0
30 -31 -57 0
-30 31 -57 0
30 31 57 0
32 35 58 0
-32 35 -58 0
32 -35 -58 0
-32 -35 58 0
-36 -37 59 0
36 -37 -59 0
-36 37 -59 0
36 37 59 0
-39 -40 60 0
39 -40 -60 0
-39 40 -60 0
39 40 60 0
-41 42 61 0
41 42 -61 0
-41 -42 -61 0
41 -42 61 0
44 45 62 0
-44 45 -62 0
44 -45 -62 0
-44 -45 62 0
46 50 63 0
-46 50 -63 0
46 -50 -63 0
-46 -50 63 0
51 -52 64 0
-51 -52 -64 0
51 52 -64 0
-51 52 64 0
53 -54 65 0
-53 -54 -65 0
53 54 -65 0
-53 54 65 0
55 -56 66 0
-55 -56 -66 0
55 56 -66 0
-55 56 66 0
57 -58 67 0
-57 -58 -67 0
57 58 -67 0
-57 58 67 0
59 -60 68 0
-59 -60 -68 0
59 60 -68 0
-59 60 68 0
61 -62 69 0
-61 -62 -69 0
61 62 -69 0
-61 62 69 0
63 -64 70 0
-63 -64 -70 0
63 64 -70 0
-63 64 70 0
65 -66 71 0
-65 -66 -71 0
65 66 -71 0
-65 66 71 0
67 -68 72 0
-67 -68 -72 0
67 68 -72 0
-67 68 72 0
69 -70 73 0
-69 -70 -73 0
69 70 -73 0
-69 70 73 0
71 -72 74 0
-71 -72 -74 0
71 72 -74 0
-71 72 74 0
73 74 0
-73 -74 0
-1 -2 75 0
1 -2 -75 0
-1 2 -75 0
1 2 75 0
-3 -4 76 0
3 -4 -76 0
-3 4 -76 0
3 4 76 0
-5 7 77 0
5 7 -77 0
-5 -7 -77 0
5 -7 77 0
10 13 78 0
-10 13 -78 0
10 -13 -78 0
-10 -13 78 0
14 -16 79 0
-14 -16 -79 0
14 16 -79 0
-14 16 79 0
-17 19 80 0
17 19 -80 0
-17 -19 -80 0
17 -19 80 0
20 -21 81 0
-20 -21 -81 0
20 21 -81 0
-20 21 81 0
24 -26 82 0
-24 -26 -82 0
24 26 -82 0
-24 26 82 0
27 -28 83 0
-27 -28 -83 0
27 28 -83 0
-27 28 83 0
29 30 84 0
-29 30 -84 0
29 -30 -84 0
-29 -30 84 0
-31 -32 85 0
31 -32 -85 0
-31 32 -85 0
31 32 85 0
34 -37 86 0
-34 -37 -86 0
34 37 -86 0
-34 37 86 0
40 -44 87 0
-40 -44 -87 0
40 44 -87 0
-40 44 87 0
48 -50 88 0
-48 -50 -88 0
48 50 -88 0
-48 50 88 0
75 -76 89 0
-75 -76 -89 0
75 76 -89 0
-75 76 89 0
77 -78 90 0
-77 -78 -90 0
77 78 -90 0
-77 78 90 0
79 -80 91 0
-79 -80 -91 0
79 80 -91 0
-79 80 91 0
81 -82 92 0
-81 -82 -92 0
81 82 -92 0
-81 82 92 0
83 -84 93 0
-83 -84 -93 0
83 84 -93 0
-83 84 93 0
85 -86 94 0
-85 -86 -94 0
85 86 -94 0
-85 86 94 0
87 -88 95 0
-87 -88 -95 0
87 88 -95 0
-87 88 95 0
89 -90 96 0
-89 -90 -96 0
89 90 -96 0
-89 90 96 0
91 -92 97 0
-91 -92 -97 0
91 92 -97 0
-91 92 97 0
93 -94 98 0
-93 -94 -98 0
93 94 -98 0
-93 94 98 0
95 -96 99 0
-95 -96 -99 0
95 96 -99 0
-95 96 99 0
97 -98 100 0
-97 -98 -100 0
97 98 -100 0
-97 98 100 0
99 100 0
-99 -100 0
1 -3 101 0
-1 -3 -101 0
1 3 -101 0
-1 3 101 0
-4 -5 102 0
4 -5 -102 0
-4 5 -102 0
4 5 102 0
7 -9 103 0
-7 -9 -103 0
7 9 -103 0
-7 9 103 0
-17 -19 104 0
17 -19 -104 0
-17 19 -104 0
17 19 104 0
-23 28 105 0
23 28 -105 0
-23 -28 -105 0
23 -28 105 0
-29 -33 106 0
29 -33 -106 0
-29 33 -106 0
29 33 106 0
36 37 107 0
-36 37 -107 0
36 -37 -107 0
-36 -37 107 0
-39 42 108 0
39 42 -108 0
-39 -42 -108 0
39 -42 108 0
-43 44 109 0
43 44 -109 0
-43 -44 -109 0
43 -44 109 0
-45 46 110 0
45 46 -110 0
-45 -46 -110 0
45 -46 110 0
-47 -48 111 0
47 -48 -111 0
-47 48 -111 0
47 48 111 0
100 -101 112 0
-100 -101 -112 0
100 101 -112 0
-100 101 112 0
102 -103 113 0
-102 -103 -113 0
102 103 -113 0
-102 103 113 0
104 -105 114 0
-104 -105 -114 0
104 105 -114 0
-104 105 114 0
106 -107 115 0
-106 -107 -115 0
106 107 -115 0
-106 107 115 0
108 -109 116 0
-108 -109 -116 0
108 109 -116 0
-108 109 116 0
110 -111 117 0
-110 -111 -117 0
110 111 -117 0
-110 111 117 0
112 -113 118 0
-112 -113 -118 0
112 113 -118 0
-112 113 118 0
114 -115 119 0
-114 -115 -119 0
114 115 -119 0
-114 115 119 0
116 -117 120 0
-116 -117 -120 0
116 117 -120 0
-116 117 120 0
-118 -119 120 0
118 -119 -120 0
-118 119 -120 0
118 119 120 0
1 -2 121 0
-1 -2 -121 0
1 2 -121 0
-1 2 121 0
5 -6 122 0
-5 -6 -122 0
5 6 -122 0
-5 6 122 0
-7 -8 123 0
7 -8 -123 0
-7 8 -123 0
7 8 123 0
-10 11 124 0
10 11 -124 0
-10 -11 -124 0
10 -11 124 0
-15 16 125 0
15 16 -125 0
-15 -16 -125 0
15 -16 125 0
-18 -19 126 0
18 -19 -126 0
-18 19 -126 0
18 19 126 0
-20 -23 127 0
20 -23 -127 0
-20 23 -127 0
20 23 127 0
24 -29 128 0
-24 -29 -128 0
24 29 -128 0
-24 29 128 0
-33 34 129 0
33 34 -129 0
-33 -34 -129 0
33 -34 129 0
37 -40 130 0
-37 -40 -130 0
37 40 -130 0
-37 40 130 0
-43 44 131 0
43 44 -131 0
-43 -44 -131 0
43 -44 131 0
45 50 132 0
-45 50 -132 0
45 -50 -132 0
-45 -50 132 0
121 -122 133 0
-121 -122 -133 0
121 122 -133 0
-121 122 133 0
123 -124 134 0
-123 -124 -134 0
123 124 -134 0
-123 124 134 0
125 -126 135 0
-125 -126 -135 0
125 126 -135 0
-125 126 135 0
127 -128 136 0
-127 -128 -136 0
127 128 -136 0
-127 128 136 0
129 -130 137 0
-129 -130 -137 0
129 130 -137 0
-129 130 137 0
131 -132 138 0
-131 -132 -138 0
131 132 -138 0
-131 132 138 0
133 -134 139 0
-133 -134 -139 0
133 134 -139 0
-133 134 139 0
135 -136 140 0
-135 -136 -140 0
135 136 -140 0
-135 136 140 0
137 -138 141 0
-137 -138 -141 0
137 138 -141 0
-137 138 141 0
-139 -140 141 0
139 -140 -141 0
-139 140 -141 0
139 140 141 0
-2 -7 142 0
2 -7 -142 0
-2 7 -142 0
2 7 142 0
8 9 143 0
-8 9 -143 0
8 -9 -143 0
-8 -9 143 0
-10 -12 144 0
10 -12 -144 0
-10 12 -144 0
10 12 144 0
13 -14 145 0
-13 -14 -145 0
13 14 -145 0
-13 14 145 0
16 -18 146 0
-16 -18 -146 0
16 18 -146 0
-16 18 146 0
19 -20 147 0
-19 -20 -147 0
19 20 -147 0
-19 20 147 0
23 24 148 0
-23 24 -148 0
23 -24 -148 0
-23 -24 148 0
-25 27 149 0
25 27 -149 0
-25 -27 -149 0
25 -27 149 0
-28 29 150 0
28 29 -150 0
-28 -29 -150 0
28 -29 150 0
-30 33 151 0
30 33 -151 0
-30 -33 -151 0
30 -33 151 0
34 35 152 0
-34 35 -152 0
34 -35 -152 0
-34 -35 152 0
-36 -38 153 0
36 -38 -153 0
-36 38 -153 0
36 38 153 0
-41 -45 154 0
41 -45 -154 0
-41 45 -154 0
41 45 154 0
49 50 155 0
-49 50 -155 0
49 -50 -155 0
-49 -50 155 0
142 -143 156 0
-142 -143 -156 0
142 143 -156 0
-142 143 156 0
144 -145 157 0
-144 -145 -157 0
144 145 -157 0
-144 145 157 0
146 -147 158 0
-146 -147 -158 0
146 147 -158 0
-146 147 158 0
148 -149 159 0
-148 -149 -159 0
148 149 -159 0
-148 149 159 0
150 -151 160 0
-150 -151 -160 0
150 151 -160 0
-150 151 160 0
152 -153 161 0
-152 -153 -161 0
152 153 -161 0
-152 153 161 0
154 -155 162 0
-154 -155 -162 0
154 155 -162 0
-154 155 162 0
156 -157 163 0
-156 -157 -163 0
156 157 -163 0
-156 157 163 0
158 -159 164 0
-158 -159 -164 0
158 159 -164 0
-158 159 164 0
160 -161 165 0
-160 -161 -165 0
160 161 -165 0
-160 161 165 0
162 -163 166 0
-162 -163 -166 0
162 163 -166 0
-162 163 166 0
164 -165 167 0
-164 -165 -167 0
164 165 -167 0
-164 165 167 0
166 167 0
-166 -167 0
-1 -2 168 0
1 -2 -168 0
-1 2 -168 0
1 2 168 0
-4 -6 169 0
4 -6 -169 0
-4 6 -169 0
4 6 169 0
-7 -9 170 0
7 -9 -170 0
-7 9 -170 0
7 9 170 0
10 12 171 0
-10 12 -171 0
10 -12 -171 0
-10 -12 171 0
-14 -18 172 0
14 -18 -172 0
-14 18 -172 0
14 18 172 0
21 24 173 0
-21 24 -173 0
21 -24 -173 0
-21 -24 173 0
26 -27 174 0
-26 -27 -174 0
26 27 -174 0
-26 27 174 0
-28 -29 175 0
28 -29 -175 0
-28 29 -175 0
28 29 175 0
-30 -31 176 0
30 -31 -176 0
-30 31 -176 0
30 31 176 0
34 -35 177 0
-34 -35 -177 0
34 35 -177 0
-34 35 177 0
-37 42 178 0
37 42 -178 0
-37 -42 -178 0
37 -42 178 0
43 -44 179 0
-43 -44 -179 0
43 44 -179 0
-43 44 179 0
-46 48 180 0
46 48 -180 0
-46 -48 -180 0
46 -48 180 0
167 -168 181 0
-167 -168 -181 0
167 168 -181 0
-167 168 181 0
169 -170 182 0
-169 -170 -182 0
169 170 -182 0
-169 170 182 0
171 -172 183 0
-171 -172 -183 0
171 172 -183 0
-171 172 183 0
173 -174 184 0
-173 -174 -184 0
173 174 -184 0
-173 174 184 0
175 -176 185 0
-175 -176 -185 0
175 176 -185 0
-175 176 185 0
177 -178 186 0
-177 -178 -186 0
177 178 -186 0
-177 178 186 0
179 -180 187 0
-179 -180 -187 0
179 180 -187 0
-179 180 187 0
181 -182 188 0
-181 -182 -188 0
181 182 -188 0
-181 182 188 0
183 -184 189 0
-183 -184 -189 0
183 184 -189 0
-183 184 189 0
185 -186 190 0
-185 -186 -190 0
185 186 -190 0
-185 186 190 0
187 -188 191 0
-187 -188 -191 0
187 188 -191 0
-187 188 191 0
189 -190 192 0
-189 -190 -192 0
189 190 -192 0
-189 190 192 0
191 192 0
-191 -192 0
1 -2 193 0
-1 -2 -193 0
1 2 -193 0
-1 2 193 0
-5 -6 194 0
5 -6 -194 0
-5 6 -194 0
5 6 194 0
-10 14 195 0
10 14 -195 0
-10 -14 -195 0
10 -14 195 0
-15 -22 196 0
15 -22 -196 0
-15 22 -196 0
15 22 196 0
26 27 197 0
-26 27 -197 0
26 -27 -197 0
-26 -27 197 0
31 -32 198 0
-31 -32 -198 0
31 32 -198 0
-31 32 198 0
-33 35 199 0
33 35 -199 0
-33 -35 -199 0
33 -35 199 0
-37 38 200 0
37 38 -200 0
-37 -38 -200 0
37 -38 200 0
-39 -40 201 0
39 -40 -201 0
-39 40 -201 0
39 40 201 0
41 -42 202 0
-41 -42 -202 0
41 42 -202 0
-41 42 202 0
43 -44 203 0
-43 -44 -203 0
43 44 -203 0
-43 44 203 0
-46 -48 204 0
46 -48 -204 0
-46 48 -204 0
46 48 204 0
192 -193 205 0
-192 -193 -205 0
192 193 -205 0
-192 193 205 0
194 -195 206 0
-194 -195 -206 0
194 195 -206 0
-194 195 206 0
196 -197 207 0
-196 -197 -207 0
196 197 -207 0
-196 197 207 0
198 -199 208 0
-198 -199 -208 0
198 199 -208 0
-198 199 208 0
200 -201 209 0
-200 -201 -209 0
200 201 -209 0
-200 201 209 0
202 -203 210 0
-202 -203 -210 0
202 203 -210 0
-202 203 210 0
204 -205 211 0
-204 -205 -211 0
204 205 -211 0
-204 205 211 0
206 -207 212 0
-206 -207 -212 0
206 207 -212 0
-206 207 212 0
208 -209 213 0
-208 -209 -213 0
208 209 -213 0
-208 209 213 0
210 -211 214 0
-210 -211 -214 0
210 211 -214 0
-210 211 214 0
212 -213 215 0
-212 -213 -215 0
212 213 -215 0
-212 213 215 0
214 215 0
-214 -215 0
1 2 216 0
-1 2 -216 0
1 -2 -216 0
-1 -2 216 0
3 4 217 0
-3 4 -217 0
3 -4 -217 0
-3 -4 217 0
-5 6 218 0
5 6 -218 0
-5 -6 -218 0
5 -6 218 0
7 -9 219 0
-7 -9 -219 0
7 9 -219 0
-7 9 219 0
-11 13 220 0
11 13 -220 0
-11 -13 -220 0
11 -13 220 0
-15 18 221 0
15 18 -221 0
-15 -18 -221 0
15 -18 221 0
19 21 222 0
-19 21 -222 0
19 -21 -222 0
-19 -21 222 0
22 24 223 0
-22 24 -223 0
22 -24 -223 0
-22 -24 223 0
-26 -28 224 0
26 -28 -224 0
-26 28 -224 0
26 28 224 0
31 34 225 0
-31 34 -225 0
31 -34 -225 0
-31 -34 225 0
-35 -36 226 0
35 -36 -226 0
-35 36 -226 0
35 36 226 0
38 -39 227 0
-38 -39 -227 0
38 39 -227 0
-38 39 227 0
40 45 228 0
-40 45 -228 0
40 -45 -228 0
-40 -45 228 0
47 -49 229 0
-47 -49 -229 0
47 49 -229 0
-47 49 229 0
215 -216 230 0
-215 -216 -230 0
215 216 -230 0
-215 216 230 0
217 -218 231 0
-217 -218 -231 0
217 218 -231 0
-217 218 231 0
219 -220 232 0
-219 -220 -232 0
219 220 -232 0
-219 220 232 0
221 -222 233 0
-221 -222 -233 0
221 222 -233 0
-221 222 233 0
223 -224 234 0
-223 -224 -234 0
223 224 -234 0
-223 224 234 0
225 -226 235 0
-225 -226 -235 0
225 226 -235 0
-225 226 235 0
227 -228 236 0
-227 -228 -236 0
227 228 -236 0
-227 228 236 0
229 -230 237 0
-229 -230 -237 0
229 230 -237 0
-229 230 237 0
231 -232 238 0
-231 -232 -238 0
231 232 -238 0
-231 232 238 0
233 -234 239 0
-233 -234 -239 0
233 234 -239 0
-233 234 239 0
235 -236 240 0
-235 -236 -240 0
235 236 -240 0
-235 236 240 0
237 -238 241 0
-237 -238 -241 0
237 238 -241 0
-237 238 241 0
239 -240 242 0
-239 -240 -242 0
239 240 -242 0
-239 240 242 0
241 242 0
-241 -242 0
-2 -4 243 0
2 -4 -243 0
-2 4 -243 0
2 4 243 0
5 6 244 0
-5 6 -244 0
5 -6 -244 0
-5 -6 244 0
-7 11 245 0
7 11 -245 0
-7 -11 -245 0
7 -11 245 0
-12 13 246 0
12 13 -246 0
-12 -13 -246 0
12 -13 246 0
14 -15 247 0
-14 -15 -247 0
14 15 -247 0
-14 15 247 0
16 -18 248 0
-16 -18 -248 0
16 18 -248 0
-16 18 248 0
-19 20 249 0
19 20 -249 0
-19 -20 -249 0
19 -20 249 0
21 26 250 0
-21 26 -250 0
21 -26 -250 0
-21 -26 250 0
29 -31 251 0
-29 -31 -251 0
29 31 -251 0
-29 31 251 0
-33 -36 252 0
33 -36 -252 0
-33 36 -252 0
33 36 252 0
-37 -41 253 0
37 -41 -253 0
-37 41 -253 0
37 41 253 0
-42 -43 254 0
42 -43 -254 0
-42 43 -254 0
42 43 254 0
-44 46 255 0
44 46 -255 0
-44 -46 -255 0
44 -46 255 0
242 -243 256 0
-242 -243 -256 0
242 243 -256 0
-242 243 256 0
244 -245 257 0
-244 -245 -257 0
244 245 -257 0
-244 245 257 0
246 -247 258 0
-246 -247 -258 0
246 247 -258 0
-246 247 258 0
248 -249 259 0
-248 -249 -259 0
248 249 -259 0
-248 249 259 0
250 -251 260 0
-250 -251 -260 0
250 251 -260 0
-250 251 260 0
252 -253 261 0
-252 -253 -261 0
252 253 -261 0
-252 253 261 0
254 -255 262 0
-254 -255 -262 0
254 255 -262 0
-254 255 262 0
256 -257 263 0
-256 -257 -263 0
256 257 -263 0
-256 257 263 0
258 -259 264 0
-258 -259 -264 0
258 259 -264 0
-258 259 264 0
260 -261 265 0
-260 -261 -265 0
260 261 -265 0
-260 261 265 0
262 -263 266 0
-262 -263 -266 0
262 263 -266 0
-262 263 266 0
264 -265 267 0
-264 -265 -267 0
264 265 -267 0
-264 265 267 0
266 267 0
-266 -267 0
-3 -9 268 0
3 -9 -268 0
-3 9 -268 0
3 9 268 0
10 -11 269 0
-10 -11 -269 0
10 11 -269 0
-10 11 269 0
-13 -17 270 0
13 -17 -270 0
-13 17 -270 0
13 17 270 0
-22 23 271 0
22 23 -271 0
-22 -23 -271 0
22 -23 271 0
24 33 272 0
-24 33 -272 0
24 -33 -272 0
-24 -33 272 0
34 36 273 0
-34 36 -273 0
34 -36 -273 0
-34 -36 273 0
37 40 274 0
-37 40 -274 0
37 -40 -274 0
-37 -40 274 0
-41 44 275 0
41 44 -275 0
-41 -44 -275 0
41 -44 275 0
45 -48 276 0
-45 -48 -276 0
45 48 -276 0
-45 48 276 0
267 -268 277 0
-267 -268 -277 0
267 268 -277 0
-267 268 277 0
269 -270 278 0
-269 -270 -278 0
269 270 -278 0
-269 270 278 0
271 -272 279 0
-271 -272 -279 0
271 272 -279 0
-271 272 279 0
273 -274 280 0
-273 -274 -280 0
273 274 -280 0
-273 274 280 0
275 -276 281 0
-275 -276 -281 0
275 276 -281 0
-275 276 281 0
277 -278 282 0
-277 -278 -282 0
277 278 -282 0
-277 278 282 0
279 -280 283 0
-279 -280 -283 0
279 280 -283 0
-279 280 283 0
-281 -282 283 0
281 -282 -283 0
-281 282 -283 0
281 282 283 0
